
     Program PWSCF v.7.4.1 starts on 15May2025 at 14: 7:24 

     This program is part of the open-source Quantum ESPRESSO suite
     for quantum simulation of materials; please cite
         "P. Giannozzi et al., J. Phys.:Condens. Matter 21 395502 (2009);
         "P. Giannozzi et al., J. Phys.:Condens. Matter 29 465901 (2017);
         "P. Giannozzi et al., J. Chem. Phys. 152 154105 (2020);
          URL http://www.quantum-espresso.org", 
     in publications or presentations arising from this work. More details at
     http://www.quantum-espresso.org/quote

     Parallel version (MPI & OpenMP), running on      24 processor cores
     Number of MPI processes:                24
     Threads/MPI process:                     1

     MPI processes distributed on     1 nodes
     114819 MiB available memory on the printing compute node when the environment starts

     Reading input from MoS2-bands.pw.in

     Current dimensions of program PWSCF are:
     Max number of different atomic species (ntypx) = 10
     Max number of k-points (npk) =  40000
     Max angular momentum in pseudopotentials (lmaxx) =  4

     Atomic positions and unit cell read from directory:
     ./mos2.save/


     K-points division:     npool     =       6
     R & G space division:  proc/nbgrp/npool/nimage =       4
     Subspace diagonalization in iterative solution of the eigenvalue problem:
     a serial algorithm will be used


     Parallelization info
     --------------------
     sticks:   dense  smooth     PW     G-vecs:    dense   smooth      PW
     Min         376     227     63                62608    29083    4483
     Max         377     229     64                62619    29093    4508
     Sum        1507     913    253               250445   116353   17961

     Using Slab Decomposition



     bravais-lattice index     =            4
     lattice parameter (alat)  =       6.0193  a.u.
     unit-cell volume          =    1007.8804 (a.u.)^3
     number of atoms/cell      =            3
     number of atomic types    =            2
     number of electrons       =        26.00
     number of Kohn-Sham states=           17
     kinetic-energy cutoff     =      90.0000  Ry
     charge density cutoff     =     600.0000  Ry
     Exchange-correlation= PBE
                           (   1   4   3   4   0   0   0)

     celldm(1)=   6.019263  celldm(2)=   0.000000  celldm(3)=   5.336399
     celldm(4)=   0.000000  celldm(5)=   0.000000  celldm(6)=   0.000000

     crystal axes: (cart. coord. in units of alat)
               a(1) = (   1.000000   0.000000   0.000000 )  
               a(2) = (  -0.500000   0.866025   0.000000 )  
               a(3) = (   0.000000   0.000000   5.336399 )  

     reciprocal axes: (cart. coord. in units 2 pi/alat)
               b(1) = (  1.000000  0.577350 -0.000000 )  
               b(2) = (  0.000000  1.154701  0.000000 )  
               b(3) = (  0.000000 -0.000000  0.187392 )  


     PseudoPot. # 1 for Mo read from file:
     /beegfs/lu76tel/QE/pseudos/Mo_ONCVPSP_PBE.upf
     MD5 check sum: 7ca7a9feba7bf08d88d14bc7fbf60c1e
     Pseudo is Norm-conserving + core correction, Zval = 14.0
     Generated using ONCVPSP code by D. R. Hamann
     Using radial grid of 1640 points,  6 beta functions with: 
                l(1) =   0
                l(2) =   0
                l(3) =   1
                l(4) =   1
                l(5) =   2
                l(6) =   2

     PseudoPot. # 2 for S  read from file:
     /beegfs/lu76tel/QE/pseudos/S_ONCVPSP_PBE.upf
     MD5 check sum: b72b6a9ca752e39de1a6cc592280dae2
     Pseudo is Norm-conserving + core correction, Zval =  6.0
     Generated using ONCVPSP code by D. R. Hamann
     Using radial grid of 1148 points,  6 beta functions with: 
                l(1) =   0
                l(2) =   0
                l(3) =   1
                l(4) =   1
                l(5) =   2
                l(6) =   2

     atomic species   valence    mass     pseudopotential
     Mo               14.00    95.94000     Mo( 1.00)
     S                 6.00    32.06500     S ( 1.00)

     12 Sym. Ops. (no inversion) found



   Cartesian axes

     site n.     atom                  positions (alat units)
         1        Mo     tau(   1) = (   0.0000000   0.0000000   2.6681996  )
         2        S      tau(   2) = (   0.5000000   0.2886751   3.1588803  )
         3        S      tau(   3) = (   0.5000000   0.2886751   2.1775189  )

     number of k points=    64
                       cart. coord. in units 2pi/alat
        k(    1) = (   0.0000000   0.0000000   0.0000000), wk =   0.0312500
        k(    2) = (   0.0238095   0.0137464   0.0000000), wk =   0.0312500
        k(    3) = (   0.0476190   0.0274929   0.0000000), wk =   0.0312500
        k(    4) = (   0.0714286   0.0412393   0.0000000), wk =   0.0312500
        k(    5) = (   0.0952381   0.0549857   0.0000000), wk =   0.0312500
        k(    6) = (   0.1190476   0.0687322   0.0000000), wk =   0.0312500
        k(    7) = (   0.1428571   0.0824786   0.0000000), wk =   0.0312500
        k(    8) = (   0.1666667   0.0962250   0.0000000), wk =   0.0312500
        k(    9) = (   0.1904762   0.1099715   0.0000000), wk =   0.0312500
        k(   10) = (   0.2142857   0.1237179   0.0000000), wk =   0.0312500
        k(   11) = (   0.2380952   0.1374643   0.0000000), wk =   0.0312500
        k(   12) = (   0.2619048   0.1512108   0.0000000), wk =   0.0312500
        k(   13) = (   0.2857143   0.1649572   0.0000000), wk =   0.0312500
        k(   14) = (   0.3095238   0.1787037   0.0000000), wk =   0.0312500
        k(   15) = (   0.3333333   0.1924501   0.0000000), wk =   0.0312500
        k(   16) = (   0.3571429   0.2061965   0.0000000), wk =   0.0312500
        k(   17) = (   0.3809524   0.2199430   0.0000000), wk =   0.0312500
        k(   18) = (   0.4047619   0.2336894   0.0000000), wk =   0.0312500
        k(   19) = (   0.4285714   0.2474358   0.0000000), wk =   0.0312500
        k(   20) = (   0.4523810   0.2611823   0.0000000), wk =   0.0312500
        k(   21) = (   0.4761905   0.2749287   0.0000000), wk =   0.0312500
        k(   22) = (   0.5000000   0.2886751   0.0000000), wk =   0.0312500
        k(   23) = (   0.4920635   0.3024216   0.0000000), wk =   0.0312500
        k(   24) = (   0.4841270   0.3161680   0.0000000), wk =   0.0312500
        k(   25) = (   0.4761905   0.3299144   0.0000000), wk =   0.0312500
        k(   26) = (   0.4682540   0.3436609   0.0000000), wk =   0.0312500
        k(   27) = (   0.4603175   0.3574073   0.0000000), wk =   0.0312500
        k(   28) = (   0.4523810   0.3711537   0.0000000), wk =   0.0312500
        k(   29) = (   0.4444444   0.3849002   0.0000000), wk =   0.0312500
        k(   30) = (   0.4365079   0.3986466   0.0000000), wk =   0.0312500
        k(   31) = (   0.4285714   0.4123930   0.0000000), wk =   0.0312500
        k(   32) = (   0.4206349   0.4261395   0.0000000), wk =   0.0312500
        k(   33) = (   0.4126984   0.4398859   0.0000000), wk =   0.0312500
        k(   34) = (   0.4047619   0.4536324   0.0000000), wk =   0.0312500
        k(   35) = (   0.3968254   0.4673788   0.0000000), wk =   0.0312500
        k(   36) = (   0.3888889   0.4811252   0.0000000), wk =   0.0312500
        k(   37) = (   0.3809524   0.4948717   0.0000000), wk =   0.0312500
        k(   38) = (   0.3730159   0.5086181   0.0000000), wk =   0.0312500
        k(   39) = (   0.3650794   0.5223645   0.0000000), wk =   0.0312500
        k(   40) = (   0.3571429   0.5361110   0.0000000), wk =   0.0312500
        k(   41) = (   0.3492063   0.5498574   0.0000000), wk =   0.0312500
        k(   42) = (   0.3412698   0.5636038   0.0000000), wk =   0.0312500
        k(   43) = (   0.3333333   0.5773503   0.0000000), wk =   0.0312500
        k(   44) = (   0.3174603   0.5498574   0.0000000), wk =   0.0312500
        k(   45) = (   0.3015873   0.5223645   0.0000000), wk =   0.0312500
        k(   46) = (   0.2857143   0.4948717   0.0000000), wk =   0.0312500
        k(   47) = (   0.2698413   0.4673788   0.0000000), wk =   0.0312500
        k(   48) = (   0.2539683   0.4398859   0.0000000), wk =   0.0312500
        k(   49) = (   0.2380952   0.4123930   0.0000000), wk =   0.0312500
        k(   50) = (   0.2222222   0.3849002   0.0000000), wk =   0.0312500
        k(   51) = (   0.2063492   0.3574073   0.0000000), wk =   0.0312500
        k(   52) = (   0.1904762   0.3299144   0.0000000), wk =   0.0312500
        k(   53) = (   0.1746032   0.3024216   0.0000000), wk =   0.0312500
        k(   54) = (   0.1587302   0.2749287   0.0000000), wk =   0.0312500
        k(   55) = (   0.1428571   0.2474358   0.0000000), wk =   0.0312500
        k(   56) = (   0.1269841   0.2199430   0.0000000), wk =   0.0312500
        k(   57) = (   0.1111111   0.1924501   0.0000000), wk =   0.0312500
        k(   58) = (   0.0952381   0.1649572   0.0000000), wk =   0.0312500
        k(   59) = (   0.0793651   0.1374643   0.0000000), wk =   0.0312500
        k(   60) = (   0.0634921   0.1099715   0.0000000), wk =   0.0312500
        k(   61) = (   0.0476190   0.0824786   0.0000000), wk =   0.0312500
        k(   62) = (   0.0317460   0.0549857   0.0000000), wk =   0.0312500
        k(   63) = (   0.0158730   0.0274929   0.0000000), wk =   0.0312500
        k(   64) = (   0.0000000   0.0000000   0.0000000), wk =   0.0312500

     Dense  grid:   250445 G-vectors     FFT dimensions: (  48,  48, 256)

     Smooth grid:   116353 G-vectors     FFT dimensions: (  40,  40, 200)

     Estimated max dynamical RAM per process >      32.15 MB

     Estimated total dynamical RAM >     771.59 MB
 ----2D----2D----2D----2D----2D----2D----2D----2D----2D----2D----2D----2D
  The code is running with the 2D cutoff
  Please refer to:
  Sohier, T., Calandra, M., & Mauri, F. (2017), 
  Density functional perturbation theory for gated two-dimensional heterostructures:
  Theoretical developments and application to flexural phonons in graphene.
  Physical Review B, 96(7), 75448. https://doi.org/10.1103/PhysRevB.96.075448
 ----2D----2D----2D----2D----2D----2D----2D----2D----2D----2D----2D----2D

     The potential is recalculated from file :
     ./mos2.save/charge-density

     Starting wfcs are   18 randomized atomic wfcs

     Band Structure Calculation
     Davidson diagonalization with overlap

     ethr =  1.00E-13,  avg # of iterations = 42.0

     total cpu time spent up to now is       22.0 secs

     End of band structure calculation

          k = 0.0000 0.0000 0.0000 ( 14479 PWs)   bands (ev):

   -66.8228 -40.9594 -40.7533 -40.7533 -20.0084 -18.7080 -11.5264  -8.5408
    -8.5408  -7.6966  -7.4384  -7.4384  -5.9324  -3.1811  -3.1811  -2.9359
    -2.9359

          k = 0.0238 0.0137 0.0000 ( 14465 PWs)   bands (ev):

   -66.8226 -40.9590 -40.7554 -40.7537 -19.9999 -18.7046 -11.5166  -8.5606
    -8.5320  -7.7779  -7.4525  -7.3690  -5.9360  -3.1952  -3.1655  -2.9622
    -2.9458

          k = 0.0476 0.0275 0.0000 ( 14461 PWs)   bands (ev):

   -66.8219 -40.9578 -40.7616 -40.7552 -19.9748 -18.6942 -11.4874  -8.6186
    -8.5057  -7.9305  -7.4939  -7.2532  -5.9477  -3.2338  -3.1200  -3.0364
    -2.9751

          k = 0.0714 0.0412 0.0000 ( 14451 PWs)   bands (ev):

   -66.8209 -40.9558 -40.7719 -40.7575 -19.9333 -18.6772 -11.4400  -8.7110
    -8.4622  -8.1013  -7.5598  -7.1468  -5.9693  -3.2865  -3.1462  -3.0476
    -3.0217

          k = 0.0952 0.0550 0.0000 ( 14465 PWs)   bands (ev):

   -66.8196 -40.9530 -40.7860 -40.7607 -19.8759 -18.6535 -11.3758  -8.8320
    -8.4025  -8.2798  -7.6462  -7.0639  -6.0040  -3.3392  -3.2761  -3.0829
    -2.9533

          k = 0.1190 0.0687 0.0000 ( 14447 PWs)   bands (ev):

   -66.8178 -40.9496 -40.8035 -40.7647 -19.8035 -18.6237 -11.2976  -8.9744
    -8.4625  -8.3274  -7.7487  -7.0119  -6.0555  -3.4102  -3.3772  -3.1553
    -2.8425

          k = 0.1429 0.0825 0.0000 ( 14474 PWs)   bands (ev):

   -66.8158 -40.9456 -40.8240 -40.7694 -19.7168 -18.5881 -11.2093  -9.1303
    -8.6477  -8.2384  -7.8625  -6.9942  -6.1269  -3.5342  -3.3886  -3.2349
    -2.7210

          k = 0.1667 0.0962 0.0000 ( 14488 PWs)   bands (ev):

   -66.8136 -40.9410 -40.8470 -40.7747 -19.6172 -18.5472 -11.1167  -9.2909
    -8.8346  -8.1373  -7.9834  -7.0104  -6.2197  -3.6369  -3.3665  -3.3180
    -2.5942

          k = 0.1905 0.1100 0.0000 ( 14504 PWs)   bands (ev):

   -66.8111 -40.9360 -40.8720 -40.7804 -19.5061 -18.5016 -11.0279  -9.4464
    -9.0223  -8.1076  -8.0261  -7.0563  -6.3320  -3.7111  -3.4008  -3.3093
    -2.4669

          k = 0.2143 0.1237 0.0000 ( 14532 PWs)   bands (ev):

   -66.8084 -40.9308 -40.8984 -40.7865 -19.3851 -18.4521 -10.9547  -9.5853
    -9.2100  -8.2320  -7.9072  -7.1249  -6.4577  -3.7540  -3.4798  -3.2204
    -2.3431

          k = 0.2381 0.1375 0.0000 ( 14528 PWs)   bands (ev):

   -66.8057 -40.9256 -40.9253 -40.7928 -19.2561 -18.3996 -10.9118  -9.6953
    -9.3967  -8.3536  -7.7834  -7.2078  -6.5868  -3.7669  -3.5519  -3.1061
    -2.2262

          k = 0.2619 0.1512 0.0000 ( 14520 PWs)   bands (ev):

   -66.8029 -40.9530 -40.9198 -40.7992 -19.1214 -18.3450 -10.9123  -9.7671
    -9.5806  -8.4704  -7.6579  -7.2972  -6.7069  -3.7532  -3.6146  -2.9743
    -2.1185

          k = 0.2857 0.1650 0.0000 ( 14522 PWs)   bands (ev):

   -66.8002 -40.9800 -40.9143 -40.8054 -18.9835 -18.2895 -10.9596  -9.8023
    -9.7597  -8.5804  -7.5338  -7.3866  -6.8050  -3.7178  -3.6657  -2.8331
    -2.0215

          k = 0.3095 0.1787 0.0000 ( 14520 PWs)   bands (ev):

   -66.7976 -41.0059 -40.9090 -40.8115 -18.8453 -18.2343 -11.0442  -9.9316
    -9.8151  -8.6821  -7.4713  -7.4145  -6.8702  -3.7040  -3.6655  -2.6902
    -1.9362

          k = 0.3333 0.1925 0.0000 ( 14532 PWs)   bands (ev):

   -66.7951 -41.0303 -40.9040 -40.8172 -18.7100 -18.1807 -11.1507 -10.0932
    -9.8230  -8.7743  -7.5481  -7.3032  -6.8957  -3.7290  -3.6010  -2.5529
    -1.8628

          k = 0.3571 0.2062 0.0000 ( 14532 PWs)   bands (ev):

   -66.7928 -41.0526 -40.8994 -40.8224 -18.5811 -18.1301 -11.2650 -10.2416
    -9.8378  -8.8560  -7.6152  -7.2028  -6.8813  -3.7415  -3.5283  -2.4272
    -1.8011

          k = 0.3810 0.2199 0.0000 ( 14542 PWs)   bands (ev):

   -66.7908 -41.0723 -40.8953 -40.8270 -18.4624 -18.0841 -11.3767 -10.3736
    -9.8629  -8.9263  -7.6717  -7.1156  -6.8337  -3.7432  -3.4517  -2.3178
    -1.7506

          k = 0.4048 0.2337 0.0000 ( 14540 PWs)   bands (ev):

   -66.7890 -41.0890 -40.8919 -40.8310 -18.3578 -18.0441 -11.4781 -10.4863
    -9.8954  -8.9846  -7.7174  -7.0431  -6.7649  -3.7368  -3.3755  -2.2279
    -1.7105

          k = 0.4286 0.2474 0.0000 ( 14558 PWs)   bands (ev):

   -66.7877 -41.1024 -40.8891 -40.8341 -18.2714 -18.0113 -11.5634 -10.5770
    -9.9293  -9.0305  -7.7525  -6.9865  -6.6899  -3.7261  -3.3050  -2.1590
    -1.6804

          k = 0.4524 0.2612 0.0000 ( 14548 PWs)   bands (ev):

   -66.7866 -41.1121 -40.8871 -40.8364 -18.2066 -17.9869 -11.6278 -10.6435
    -9.9586  -9.0635  -7.7771  -6.9460  -6.6235  -3.7148  -3.2465  -2.1108
    -1.6593

          k = 0.4762 0.2749 0.0000 ( 14552 PWs)   bands (ev):

   -66.7860 -41.1181 -40.8858 -40.8378 -18.1665 -17.9719 -11.6679 -10.6841
    -9.9782  -9.0834  -7.7918  -6.9218  -6.5780  -3.7065  -3.2073  -2.0826
    -1.6469

          k = 0.5000 0.2887 0.0000 ( 14582 PWs)   bands (ev):

   -66.7858 -41.1201 -40.8854 -40.8383 -18.1529 -17.9669 -11.6816 -10.6978
    -9.9850  -9.0900  -7.7966  -6.9137  -6.5619  -3.7034  -3.1934  -2.0733
    -1.6428

          k = 0.4921 0.3024 0.0000 ( 14552 PWs)   bands (ev):

   -66.7858 -41.1198 -40.8854 -40.8389 -18.1517 -17.9661 -11.6778 -10.7008
    -9.9837  -9.0907  -7.7957  -6.9415  -6.5471  -3.7019  -3.1922  -2.0682
    -1.6544

          k = 0.4841 0.3162 0.0000 ( 14552 PWs)   bands (ev):

   -66.7857 -41.1189 -40.8852 -40.8406 -18.1480 -17.9638 -11.6667 -10.7098
    -9.9798  -9.0927  -7.7933  -7.0141  -6.5125  -3.6979  -3.1883  -2.0532
    -1.6880

          k = 0.4762 0.3299 0.0000 ( 14552 PWs)   bands (ev):

   -66.7856 -41.1175 -40.8850 -40.8435 -18.1419 -17.9600 -11.6482 -10.7247
    -9.9734  -9.0954  -7.7897  -7.1159  -6.4727  -3.6928  -3.1810  -2.0299
    -1.7398

          k = 0.4683 0.3437 0.0000 ( 14542 PWs)   bands (ev):

   -66.7855 -41.1156 -40.8847 -40.8475 -18.1334 -17.9547 -11.6224 -10.7453
    -9.9647  -9.0980  -7.7858  -7.2377  -6.4347  -3.6886  -3.1688  -2.0026
    -1.8022

          k = 0.4603 0.3574 0.0000 ( 14542 PWs)   bands (ev):

   -66.7853 -41.1131 -40.8843 -40.8525 -18.1228 -17.9481 -11.5895 -10.7715
    -9.9537  -9.0996  -7.7823  -7.3746  -6.4006  -3.6878  -3.1502  -1.9910
    -1.8521

          k = 0.4524 0.3712 0.0000 ( 14533 PWs)   bands (ev):

   -66.7850 -41.1100 -40.8838 -40.8585 -18.1102 -17.9403 -11.5497 -10.8028
    -9.9409  -9.0993  -7.7802  -7.5236  -6.3703  -3.6928  -3.1240  -2.0371
    -1.8444

          k = 0.4444 0.3849 0.0000 ( 14535 PWs)   bands (ev):

   -66.7848 -41.1065 -40.8833 -40.8655 -18.0958 -17.9314 -11.5030 -10.8388
    -9.9264  -9.0963  -7.7804  -7.6823  -6.3430  -3.7055  -3.0892  -2.1207
    -1.7965

          k = 0.4365 0.3986 0.0000 ( 14557 PWs)   bands (ev):

   -66.7845 -41.1024 -40.8827 -40.8733 -18.0798 -17.9215 -11.4499 -10.8786
    -9.9106  -9.0899  -7.8483  -7.7838  -6.3175  -3.7265  -3.0462  -2.2137
    -1.7348

          k = 0.4286 0.4124 0.0000 ( 14559 PWs)   bands (ev):

   -66.7842 -41.0979 -40.8821 -40.8818 -18.0624 -17.9108 -11.3905 -10.9216
    -9.8940  -9.0795  -8.0197  -7.7911  -6.2925  -3.7561  -2.9957  -2.3075
    -1.6665

          k = 0.4206 0.4261 0.0000 ( 14567 PWs)   bands (ev):

   -66.7838 -41.0929 -40.8910 -40.8815 -18.0440 -17.8996 -11.3252 -10.9668
    -9.8770  -9.0650  -8.1945  -7.8026  -6.2669  -3.7935  -2.9392  -2.3982
    -1.5949

          k = 0.4127 0.4399 0.0000 ( 14561 PWs)   bands (ev):

   -66.7835 -41.0875 -40.9007 -40.8808 -18.0250 -17.8881 -11.2544 -11.0132
    -9.8602  -9.0463  -8.3705  -7.8189  -6.2397  -3.8377  -2.8782  -2.4836
    -1.5223

          k = 0.4048 0.4536 0.0000 ( 14561 PWs)   bands (ev):

   -66.7832 -41.0816 -40.9109 -40.8801 -18.0056 -17.8765 -11.1785 -11.0596
    -9.8443  -9.0236  -8.5457  -7.8398  -6.2103  -3.8876  -2.8145  -2.5619
    -1.4507

          k = 0.3968 0.4674 0.0000 ( 14571 PWs)   bands (ev):

   -66.7828 -41.0755 -40.9213 -40.8794 -17.9863 -17.8650 -11.1051 -11.0981
    -9.8302  -8.9974  -8.7177  -7.8651  -6.1784  -3.9416  -2.7497  -2.6320
    -1.3819

          k = 0.3889 0.4811 0.0000 ( 14565 PWs)   bands (ev):

   -66.7825 -41.0690 -40.9319 -40.8788 -17.9675 -17.8539 -11.1485 -11.0137
    -9.8192  -8.9681  -8.8838  -7.8944  -6.1440  -3.9982  -2.6933  -2.6855
    -1.3176

          k = 0.3810 0.4949 0.0000 ( 14581 PWs)   bands (ev):

   -66.7822 -41.0622 -40.9425 -40.8782 -17.9497 -17.8434 -11.1888 -10.9263
    -9.8134  -9.0403  -8.9368  -7.9268  -6.1079  -4.0556  -2.7453  -2.6236
    -1.2594

          k = 0.3730 0.5086 0.0000 ( 14575 PWs)   bands (ev):

   -66.7819 -41.0554 -40.9529 -40.8776 -17.9333 -17.8339 -11.2251 -10.8371
    -9.8161  -9.1819  -8.9045  -7.9609  -6.0711  -4.1116  -2.7879  -2.5659
    -1.2086

          k = 0.3651 0.5224 0.0000 ( 14563 PWs)   bands (ev):

   -66.7817 -41.0485 -40.9629 -40.8771 -17.9187 -17.8256 -11.2563 -10.7477
    -9.8323  -9.3014  -8.8727  -7.9950  -6.0352  -4.1637  -2.8214  -2.5142
    -1.1662

          k = 0.3571 0.5361 0.0000 ( 14561 PWs)   bands (ev):

   -66.7815 -41.0418 -40.9720 -40.8767 -17.9065 -17.8188 -11.2818 -10.6614
    -9.8664  -9.3905  -8.8435  -8.0268  -6.0026  -4.2092  -2.8462  -2.4705
    -1.1330

          k = 0.3492 0.5499 0.0000 ( 14573 PWs)   bands (ev):

   -66.7813 -41.0359 -40.9799 -40.8764 -17.8972 -17.8136 -11.3008 -10.5837
    -9.9159  -9.4456  -8.8194  -8.0535  -5.9759  -4.2450  -2.8628  -2.4369
    -1.1094

          k = 0.3413 0.5636 0.0000 ( 14565 PWs)   bands (ev):

   -66.7812 -41.0315 -40.9855 -40.8762 -17.8913 -17.8104 -11.3125 -10.5255
    -9.9640  -9.4722  -8.8030  -8.0716  -5.9581  -4.2683  -2.8720  -2.4154
    -1.0955

          k = 0.3333 0.5774 0.0000 ( 14565 PWs)   bands (ev):

   -66.7812 -41.0299 -40.9875 -40.8762 -17.8892 -17.8093 -11.3166 -10.5029
    -9.9850  -9.4793  -8.7971  -8.0782  -5.9517  -4.2764  -2.8749  -2.4079
    -1.0909

          k = 0.3175 0.5499 0.0000 ( 14585 PWs)   bands (ev):

   -66.7813 -41.0351 -40.9805 -40.8765 -17.8984 -17.8140 -11.2997 -10.5805
    -9.9048  -9.4592  -8.8214  -8.0501  -5.9792  -4.2430  -2.8658  -2.4401
    -1.1075

          k = 0.3016 0.5224 0.0000 ( 14571 PWs)   bands (ev):

   -66.7818 -41.0442 -40.9657 -40.8774 -17.9278 -17.8288 -11.2475 -10.7243
    -9.7500  -9.4022  -8.8857  -7.9720  -6.0577  -4.1505  -2.8458  -2.5378
    -1.1515

          k = 0.2857 0.4949 0.0000 ( 14573 PWs)   bands (ev):

   -66.7826 -41.0514 -40.9485 -40.8790 -17.9797 -17.8538 -11.1591 -10.8574
    -9.6210  -9.2866  -8.9700  -7.8609  -6.1712  -4.0229  -2.8260  -2.6923
    -1.2125

          k = 0.2698 0.4674 0.0000 ( 14567 PWs)   bands (ev):

   -66.7838 -41.0548 -40.9306 -40.8814 -18.0548 -17.8889 -11.0346 -10.9569
    -9.5544  -9.1043  -9.0566  -7.7321  -6.2990  -3.8911  -2.8835  -2.8183
    -1.2798

          k = 0.2540 0.4399 0.0000 ( 14569 PWs)   bands (ev):

   -66.7854 -41.0537 -40.9126 -40.8846 -18.1526 -17.9331 -11.0165 -10.8757
    -9.5316  -9.1338  -8.8886  -7.5961  -6.4238  -3.7866  -3.0826  -2.8324
    -1.3450

          k = 0.2381 0.4124 0.0000 ( 14541 PWs)   bands (ev):

   -66.7873 -41.0478 -40.8949 -40.8884 -18.2710 -17.9853 -11.0365 -10.6851
    -9.5381  -9.1937  -8.6650  -7.4603  -6.5341  -3.7429  -3.2501  -2.8735
    -1.4049

          k = 0.2222 0.3849 0.0000 ( 14529 PWs)   bands (ev):

   -66.7896 -41.0373 -40.8930 -40.8777 -18.4069 -18.0440 -11.0208 -10.4668
    -9.5696  -9.2307  -8.4460  -7.3300  -6.6234  -3.7856  -3.3475  -2.9406
    -1.4635

          k = 0.2063 0.3574 0.0000 ( 14531 PWs)   bands (ev):

   -66.7922 -41.0221 -40.8982 -40.8613 -18.5563 -18.1075 -10.9772 -10.2262
    -9.6209  -9.2403  -8.2420  -7.2097  -6.6894  -3.8790  -3.3910  -3.0273
    -1.5291

          k = 0.1905 0.3299 0.0000 ( 14535 PWs)   bands (ev):

   -66.7951 -41.0029 -40.9040 -40.8457 -18.7149 -18.1740 -10.9177  -9.9709
    -9.6813  -9.2173  -8.0663  -7.1031  -6.7291  -3.9602  -3.4221  -3.1246
    -1.6113

          k = 0.1746 0.3024 0.0000 ( 14535 PWs)   bands (ev):

   -66.7981 -40.9802 -40.9101 -40.8312 -18.8780 -18.2419 -10.8605  -9.7319
    -9.7130  -9.1544  -7.9383  -7.0132  -6.7332  -3.9982  -3.4532  -3.2229
    -1.7166

          k = 0.1587 0.2749 0.0000 ( 14529 PWs)   bands (ev):

   -66.8013 -40.9546 -40.9165 -40.8178 -19.0415 -18.3097 -10.8299  -9.7466
    -9.4722  -9.0379  -7.8780  -6.9423  -6.6884  -3.9873  -3.4784  -3.3138
    -1.8474

          k = 0.1429 0.2474 0.0000 ( 14519 PWs)   bands (ev):

   -66.8046 -40.9272 -40.9230 -40.8056 -19.2013 -18.3757 -10.8462  -9.7027
    -9.2686  -8.8555  -7.8898  -6.8921  -6.5931  -3.9350  -3.4861  -3.3897
    -2.0014

          k = 0.1270 0.2199 0.0000 ( 14525 PWs)   bands (ev):

   -66.8078 -40.9294 -40.8988 -40.7946 -19.3538 -18.4385 -10.9107  -9.5978
    -9.0955  -8.6234  -7.9564  -6.8640  -6.4654  -3.8543  -3.4648  -3.4446
    -2.1730

          k = 0.1111 0.1925 0.0000 ( 14513 PWs)   bands (ev):

   -66.8108 -40.9356 -40.8704 -40.7849 -19.4958 -18.4970 -11.0075  -9.4478
    -8.9289  -8.3762  -8.0535  -6.8592  -6.3301  -3.7552  -3.4733  -3.4094
    -2.3546

          k = 0.0952 0.1650 0.0000 ( 14495 PWs)   bands (ev):

   -66.8137 -40.9413 -40.8432 -40.7765 -19.6246 -18.5500 -11.1181  -9.2730
    -8.7552  -8.1612  -8.1393  -6.8788  -6.2069  -3.6396  -3.4728  -3.3260
    -2.5372

          k = 0.0794 0.1375 0.0000 ( 14455 PWs)   bands (ev):

   -66.8163 -40.9465 -40.8181 -40.7693 -19.7376 -18.5966 -11.2283  -9.0909
    -8.5710  -8.2662  -7.9276  -6.9240  -6.1068  -3.5054  -3.4431  -3.2293
    -2.7115

          k = 0.0635 0.1100 0.0000 ( 14445 PWs)   bands (ev):

   -66.8185 -40.9510 -40.7960 -40.7635 -19.8328 -18.6358 -11.3284  -8.9167
    -8.3774  -8.3600  -7.7504  -6.9958  -6.0331  -3.3886  -3.3557  -3.1341
    -2.8685

          k = 0.0476 0.0825 0.0000 ( 14471 PWs)   bands (ev):

   -66.8203 -40.9546 -40.7779 -40.7590 -19.9086 -18.6670 -11.4121  -8.7635
    -8.4371  -8.1786  -7.6124  -7.0940  -5.9835  -3.3194  -3.2029  -3.0514
    -2.9999

          k = 0.0317 0.0550 0.0000 ( 14449 PWs)   bands (ev):

   -66.8217 -40.9572 -40.7644 -40.7558 -19.9637 -18.6897 -11.4746  -8.6437
    -8.4941  -7.9812  -7.5150  -7.2160  -5.9532  -3.2507  -3.0989  -3.0666
    -2.9884

          k = 0.0159 0.0275 0.0000 ( 14473 PWs)   bands (ev):

   -66.8225 -40.9589 -40.7561 -40.7539 -19.9971 -18.7034 -11.5133  -8.5672
    -8.5291  -7.7993  -7.4574  -7.3515  -5.9373  -3.1999  -3.1603  -2.9707
    -2.9492

          k = 0.0000 0.0000 0.0000 ( 14479 PWs)   bands (ev):

   -66.8228 -40.9594 -40.7533 -40.7533 -20.0084 -18.7080 -11.5264  -8.5408
    -8.5408  -7.6966  -7.4384  -7.4384  -5.9324  -3.1811  -3.1811  -2.9359
    -2.9359

     Writing all to output data dir ./mos2.save/ :
     XML data file, pseudopotentials, collected wavefunctions

     init_run     :      1.14s CPU      1.28s WALL (       1 calls)
     electrons    :     19.48s CPU     20.19s WALL (       1 calls)

     Called by init_run:
     wfcinit      :      0.00s CPU      0.03s WALL (       1 calls)
     potinit      :      0.56s CPU      0.62s WALL (       1 calls)
     hinit0       :      0.50s CPU      0.54s WALL (       1 calls)

     Called by electrons:
     c_bands      :     19.48s CPU     20.19s WALL (       1 calls)
     v_of_rho     :      0.11s CPU      0.13s WALL (       1 calls)

     Called by c_bands:
     init_us_2    :      0.04s CPU      0.05s WALL (      11 calls)
     cegterg      :     17.84s CPU     18.47s WALL (      25 calls)

     Called by *egterg:
     cdiaghg      :      0.22s CPU      0.24s WALL (     450 calls)
     h_psi        :     15.84s CPU     16.45s WALL (     475 calls)
     g_psi        :      0.32s CPU      0.33s WALL (     439 calls)

     Called by h_psi:
     h_psi:calbec :      0.70s CPU      0.72s WALL (     475 calls)
     vloc_psi     :     14.50s CPU     15.07s WALL (     475 calls)
     add_vuspsi   :      0.56s CPU      0.57s WALL (     475 calls)

     General routines
     calbec       :      0.70s CPU      0.72s WALL (     475 calls)
     fft          :      0.47s CPU      0.51s WALL (      12 calls)
     ffts         :      0.42s CPU      0.42s WALL (       1 calls)
     fftw         :     10.58s CPU     11.00s WALL (   12488 calls)
     interpolate  :      0.42s CPU      0.43s WALL (       1 calls)
     davcio       :      0.00s CPU      0.04s WALL (      22 calls)

     Parallel routines

     PWSCF        :     20.92s CPU     22.20s WALL


   This run was terminated on:  14: 7:46  15May2025            

=------------------------------------------------------------------------------=
   JOB DONE.
=------------------------------------------------------------------------------=
